100
30
15
30
20
23
25
17
8
16
25
24
8
12
8
15
10
7
29
4
1
5
32
29
6
15
22
31
30
17
17
25
12
13
25
8
28
13
14
29
30
9
3
5
26
14
10
23
13
9
27
31
26
24
18
25
29
25
4
26
25
15
20
25
30
15
26
15
3
18
32
13
17
25
16
32
19
13
21
21
1
7
18
31
21
17
30
20
15
32
30
17
2
5
10
4
20
17
2
30
22
26